p tw 156 305
1 6
1 91
1 92
1 94
1 122
1 123
2 75
2 139
2 140
3 49
3 50
3 88
3 89
3 119
3 120
4 59
4 109
4 110
5 72
5 73
5 77
5 78
5 150
5 151
6 93
6 94
7 21
7 80
7 81
8 65
8 66
8 98
8 99
8 130
8 131
9 66
9 67
9 78
9 79
9 152
9 153
10 12
10 61
10 62
10 92
10 123
11 68
11 69
11 102
11 103
12 70
12 71
12 92
12 123
12 155
12 156
13 87
13 88
13 93
13 118
13 119
14 54
14 55
14 101
14 102
14 142
14 143
15 42
15 60
15 86
15 87
15 116
15 117
16 52
16 53
16 113
16 114
16 137
16 138
17 114
17 136
17 137
18 73
18 74
18 82
18 83
19 42
19 43
19 90
19 91
19 121
19 122
20 62
20 145
20 146
21 81
21 82
22 43
22 44
22 124
22 125
23 69
23 70
23 104
23 105
23 133
23 134
24 44
24 45
24 96
24 97
24 126
24 127
25 55
25 56
25 85
25 86
25 100
25 101
25 117
25 118
26 45
26 46
26 97
26 98
27 48
27 49
27 99
27 100
27 131
27 132
28 63
28 125
28 126
29 50
29 51
29 105
29 106
29 134
29 135
30 51
30 52
30 110
30 111
31 60
31 61
31 145
32 54
32 141
32 142
32 151
32 152
33 63
33 64
33 148
33 149
34 72
34 95
34 96
34 139
35 75
35 76
35 127
35 128
35 147
35 148
36 58
36 59
36 107
36 108
37 84
37 85
37 115
37 116
38 71
38 111
38 112
38 135
38 136
39 74
39 106
39 107
39 144
40 57
40 58
40 89
40 90
40 103
40 104
40 120
40 121
40 143
40 144
41 47
41 48
41 129
41 130
41 153
41 154
42 43
43 44
44 45
45 46
46 47
47 48
48 49
49 50
50 51
51 52
52 53
53 138
54 55
55 56
56 57
57 58
58 59
60 61
61 62
63 64
64 65
65 66
66 67
67 68
68 69
69 70
70 71
72 73
73 74
75 76
76 77
77 78
78 79
79 80
80 81
81 82
82 83
83 156
84 85
84 115
85 86
86 87
87 88
88 89
89 90
90 91
91 92
93 94
95 96
95 124
96 97
97 98
98 99
99 100
100 101
101 102
102 103
103 104
104 105
105 106
106 107
107 108
108 109
109 110
110 111
111 112
112 113
113 114
115 116
116 117
117 118
118 119
119 120
120 121
121 122
122 123
124 125
125 126
126 127
127 128
128 129
129 130
130 131
131 132
132 133
133 134
134 135
135 136
136 137
137 138
139 140
140 141
141 142
142 143
143 144
145 146
146 147
147 148
148 149
149 150
150 151
151 152
152 153
153 154
154 155
155 156
